keccak_milp_n_0_l_0.sol
# Objective value = 0
A_0_0_0 0
A_0_0_1 0
A_0_1_0 0
A_0_1_1 0
A_0_2_0 0
A_0_2_1 0
A_0_3_0 0
A_0_3_1 0
A_0_4_0 0
A_0_4_1 0
x_0_0_0_0 0
x_0_0_1_0 0
x_0_0_2_0 0
x_0_0_3_0 0
x_0_0_4_0 0
p_0_0_0 0
2d_0_0_0 0
x_0_0_0_1 0
x_0_0_1_1 0
x_0_0_2_1 0
x_0_0_3_1 0
x_0_0_4_1 0
p_0_0_1 0
2d_0_0_1 0
x_0_1_0_0 0
x_0_1_1_0 0
x_0_1_2_0 0
x_0_1_3_0 0
x_0_1_4_0 0
p_0_1_0 0
2d_0_1_0 0
x_0_1_0_1 0
x_0_1_1_1 0
x_0_1_2_1 0
x_0_1_3_1 0
x_0_1_4_1 0
p_0_1_1 0
2d_0_1_1 0
x_0_2_0_0 0
x_0_2_1_0 0
x_0_2_2_0 0
x_0_2_3_0 0
x_0_2_4_0 0
p_0_2_0 0
2d_0_2_0 0
x_0_2_0_1 0
x_0_2_1_1 0
x_0_2_2_1 0
x_0_2_3_1 0
x_0_2_4_1 0
p_0_2_1 0
2d_0_2_1 0
x_0_3_0_0 0
x_0_3_1_0 0
x_0_3_2_0 0
x_0_3_3_0 0
x_0_3_4_0 0
p_0_3_0 0
2d_0_3_0 0
x_0_3_0_1 0
x_0_3_1_1 0
x_0_3_2_1 1
x_0_3_3_1 0
x_0_3_4_1 0
p_0_3_1 0
2d_0_3_1 1
x_0_4_0_0 0
x_0_4_1_0 0
x_0_4_2_0 0
x_0_4_3_0 0
x_0_4_4_0 0
p_0_4_0 0
2d_0_4_0 0
x_0_4_0_1 0
x_0_4_1_1 0
x_0_4_2_1 0
x_0_4_3_1 0
x_0_4_4_1 0
p_0_4_1 0
2d_0_4_1 0
d_0_0_0 2000000000
d_0_0_1 2000000000
d_0_1_0 2000000000
d_0_1_1 2000000000
d_0_2_0 2000000000
d_0_2_1 2000000000
d_0_3_0 2000000000
d_0_3_1 2000000000
d_0_4_0 2000000000
d_0_4_1 2000000000
y_0_0_0_0 0
2e_0_0_0_0 0
p_1_0_0 0
e_0_0_0_0 2000000000
p_0_1_4 0
y_0_0_1_0 0
2e_0_0_1_0 0
e_0_0_1_0 2000000000
y_0_0_2_0 0
2e_0_0_2_0 0
e_0_0_2_0 2000000000
y_0_0_3_0 0
2e_0_0_3_0 0
e_0_0_3_0 2000000000
y_0_0_4_0 0
2e_0_0_4_0 0
e_0_0_4_0 2000000000
y_0_0_0_1 0
2e_0_0_0_1 0
p_1_1_0 0
e_0_0_0_1 2000000000
y_0_0_1_1 0
2e_0_0_1_1 0
e_0_0_1_1 2000000000
y_0_0_2_1 0
2e_0_0_2_1 0
e_0_0_2_1 2000000000
y_0_0_3_1 0
2e_0_0_3_1 0
e_0_0_3_1 2000000000
y_0_0_4_1 0
2e_0_0_4_1 0
e_0_0_4_1 2000000000
y_0_1_0_0 0
2e_0_1_0_0 0
p_2_0_0 0
e_0_1_0_0 2000000000
p_0_2_4 0
y_0_1_1_0 0
2e_0_1_1_0 0
e_0_1_1_0 2000000000
y_0_1_2_0 0
2e_0_1_2_0 0
p_1_2_0 0
e_0_1_2_0 2000000000
y_0_1_3_0 0
2e_0_1_3_0 0
p_1_3_0 0
e_0_1_3_0 2000000000
y_0_1_4_0 0
2e_0_1_4_0 0
p_1_4_0 0
e_0_1_4_0 2000000000
y_0_1_0_1 0
2e_0_1_0_1 0
p_2_1_0 0
p_1_0_1 0
e_0_1_0_1 2000000000
y_0_1_1_1 0
2e_0_1_1_1 0
p_1_1_1 0
e_0_1_1_1 2000000000
y_0_1_2_1 0
2e_0_1_2_1 0
p_1_2_1 0
e_0_1_2_1 2000000000
y_0_1_3_1 0
2e_0_1_3_1 0
p_1_3_1 0
e_0_1_3_1 2000000000
y_0_1_4_1 0
2e_0_1_4_1 0
p_1_4_1 0
e_0_1_4_1 2000000000
y_0_2_0_0 0
2e_0_2_0_0 0
p_3_0_0 0
e_0_2_0_0 2000000000
p_0_3_4 0
y_0_2_1_0 0
2e_0_2_1_0 0
e_0_2_1_0 2000000000
y_0_2_2_0 0
2e_0_2_2_0 0
p_2_2_0 0
e_0_2_2_0 2000000000
y_0_2_3_0 0
2e_0_2_3_0 0
p_2_3_0 0
e_0_2_3_0 2000000000
y_0_2_4_0 0
2e_0_2_4_0 0
p_2_4_0 0
e_0_2_4_0 2000000000
y_0_2_0_1 0
2e_0_2_0_1 0
p_3_1_0 0
p_2_0_1 0
e_0_2_0_1 2000000000
y_0_2_1_1 0
2e_0_2_1_1 0
p_2_1_1 0
e_0_2_1_1 2000000000
y_0_2_2_1 0
2e_0_2_2_1 0
p_2_2_1 0
e_0_2_2_1 2000000000
y_0_2_3_1 0
2e_0_2_3_1 0
p_2_3_1 0
e_0_2_3_1 2000000000
y_0_2_4_1 0
2e_0_2_4_1 0
p_2_4_1 0
e_0_2_4_1 2000000000
y_0_3_0_0 0
2e_0_3_0_0 0
p_4_0_0 0
e_0_3_0_0 2000000000
p_0_4_4 0
y_0_3_1_0 0
2e_0_3_1_0 0
e_0_3_1_0 2000000000
y_0_3_2_0 0
2e_0_3_2_0 0
p_3_2_0 0
e_0_3_2_0 2000000000
y_0_3_3_0 0
2e_0_3_3_0 0
p_3_3_0 0
e_0_3_3_0 2000000000
y_0_3_4_0 0
2e_0_3_4_0 0
p_3_4_0 0
e_0_3_4_0 2000000000
y_0_3_0_1 0
2e_0_3_0_1 0
p_4_1_0 0
p_3_0_1 0
e_0_3_0_1 2000000000
y_0_3_1_1 0
2e_0_3_1_1 0
p_3_1_1 0
e_0_3_1_1 2000000000
y_0_3_2_1 0
2e_0_3_2_1 0
p_3_2_1 0
e_0_3_2_1 2000000000
y_0_3_3_1 0
2e_0_3_3_1 0
p_3_3_1 0
e_0_3_3_1 2000000000
y_0_3_4_1 0
2e_0_3_4_1 0
p_3_4_1 0
e_0_3_4_1 2000000000
y_0_4_0_0 0
2e_0_4_0_0 0
e_0_4_0_0 2000000000
p_0_0_4 0
y_0_4_1_0 0
2e_0_4_1_0 0
e_0_4_1_0 2000000000
y_0_4_2_0 0
2e_0_4_2_0 0
p_4_2_0 0
e_0_4_2_0 2000000000
y_0_4_3_0 0
2e_0_4_3_0 0
p_4_3_0 0
e_0_4_3_0 2000000000
y_0_4_4_0 0
2e_0_4_4_0 0
p_4_4_0 0
e_0_4_4_0 2000000000
y_0_4_0_1 0
2e_0_4_0_1 0
p_4_0_1 0
e_0_4_0_1 2000000000
y_0_4_1_1 0
2e_0_4_1_1 0
p_4_1_1 0
e_0_4_1_1 2000000000
y_0_4_2_1 0
2e_0_4_2_1 0
p_4_2_1 0
e_0_4_2_1 2000000000
y_0_4_3_1 0
2e_0_4_3_1 0
p_4_3_1 0
e_0_4_3_1 2000000000
y_0_4_4_1 0
2e_0_4_4_1 0
p_4_4_1 0
e_0_4_4_1 2000000000
z_0_0_0_0 0
z_0_1_0_0 0
z_0_2_0_0 0
z_0_3_0_0 0
z_0_4_0_0 0
z_0_0_0_1 0
z_0_1_0_1 0
z_0_2_0_1 0
z_0_3_0_1 0
z_0_4_0_1 0
z_0_0_1_0 0
z_0_1_1_0 0
z_0_2_1_0 0
z_0_3_1_0 0
z_0_4_1_0 0
z_0_0_1_1 0
z_0_1_1_1 0
z_0_2_1_1 0
z_0_3_1_1 0
z_0_4_1_1 0
z_0_0_2_0 0
z_0_1_2_0 0
z_0_2_2_0 0
z_0_3_2_0 0
z_0_4_2_0 0
z_0_0_2_1 0
z_0_1_2_1 0
z_0_2_2_1 0
z_0_3_2_1 0
z_0_4_2_1 0
z_0_0_3_0 0
z_0_1_3_0 0
z_0_2_3_0 0
z_0_3_3_0 0
z_0_4_3_0 0
z_0_0_3_1 0
z_0_1_3_1 0
z_0_2_3_1 0
z_0_3_3_1 0
z_0_4_3_1 0
z_0_0_4_0 0
z_0_1_4_0 0
z_0_2_4_0 0
z_0_3_4_0 0
z_0_4_4_0 0
z_0_0_4_1 0
z_0_1_4_1 0
z_0_2_4_1 0
z_0_3_4_1 0
z_0_4_4_1 0
f_0_0_0 0
f_0_1_0 0
f_0_2_0 0
f_0_3_0 0
f_0_4_0 0
f_0_0_1 0
f_0_1_1 0
f_0_2_1 0
f_0_3_1 0
f_0_4_1 0
